
Gurobi 12.0.2 (win64) logging started Wed Dec 10 17:17:28 2025

Set parameter LogFile to value "C:\Ioana\_uni\honours\slp\algorithm\Main_files\results\arachidonic_acid_metabolism\Task_001_Sample002_irr_gurobi.log"
Gurobi Optimizer version 12.0.2 build v12.0.2rc0 (win64 - Windows 11.0 (26100.2))

CPU model: Intel(R) Core(TM) Ultra 5 125H, instruction set [SSE2|AVX|AVX2]
Thread count: 14 physical cores, 18 logical processors, using up to 18 threads

Non-default parameters:
TimeLimit  2200

Optimize a model with 47236 rows, 34511 columns and 146721 nonzeros
Model fingerprint: 0x7dd38bc1
Variable types: 17262 continuous, 17249 integer (17249 binary)
Coefficient statistics:
  Matrix range     [1e-04, 8e+04]
  Objective range  [1e-04, 9e-01]
  Bounds range     [1e+00, 1e+03]
  RHS range        [1e+00, 1e+00]
Presolve removed 30834 rows and 21555 columns
Presolve time: 0.38s
Presolved: 16402 rows, 12956 columns, 54584 nonzeros
Variable types: 6412 continuous, 6544 integer (6544 binary)

Root relaxation: objective 3.839194e-03, 3765 iterations, 0.40 seconds (0.66 work units)

    Nodes    |    Current Node    |     Objective Bounds      |     Work
 Expl Unexpl |  Obj  Depth IntInf | Incumbent    BestBd   Gap | It/Node Time

     0     0    0.00384    0   42          -    0.00384      -     -    0s
H    0     0                       4.1640869    0.00384   100%     -    0s
H    0     0                       4.1495506    0.00384   100%     -    0s
H    0     0                       4.1134803    0.87928  78.6%     -    1s
H    0     0                       4.1131725    0.87928  78.6%     -    1s
H    0     0                       4.0594413    2.67238  34.2%     -    1s
     0     0    2.67238    0   55    4.05944    2.67238  34.2%     -    1s
     0     0    2.68106    0   57    4.05944    2.68106  34.0%     -    1s
     0     0    3.52212    0   56    4.05944    3.52212  13.2%     -    2s
     0     0    3.52284    0   46    4.05944    3.52284  13.2%     -    2s
     0     0    3.52379    0   47    4.05944    3.52379  13.2%     -    2s
     0     0    3.66983    0   52    4.05944    3.66983  9.60%     -    3s
     0     0    3.68564    0   58    4.05944    3.68564  9.21%     -    3s
     0     0    3.71794    0   52    4.05944    3.71794  8.41%     -    4s
     0     0    3.71794    0   56    4.05944    3.71794  8.41%     -    4s
     0     0    3.71800    0   57    4.05944    3.71800  8.41%     -    4s
     0     0    3.71976    0   53    4.05944    3.71976  8.37%     -    4s
     0     0    3.71976    0   39    4.05944    3.71976  8.37%     -    4s
     0     0    3.71976    0   50    4.05944    3.71976  8.37%     -    4s
     0     0    3.71976    0   42    4.05944    3.71976  8.37%     -    5s
     0     0    3.71976    0   42    4.05944    3.71976  8.37%     -    5s
     0     0    3.71976    0   42    4.05944    3.71976  8.37%     -    5s
     0     0    3.76091    0   49    4.05944    3.76091  7.35%     -    5s
     0     0    3.76139    0   50    4.05944    3.76139  7.34%     -    5s
     0     0    3.79722    0  116    4.05944    3.79722  6.46%     -    5s
     0     0    3.80023    0  108    4.05944    3.80023  6.39%     -    5s
     0     0    3.80142    0  106    4.05944    3.80142  6.36%     -    5s
     0     0    3.80143    0  111    4.05944    3.80143  6.36%     -    5s
     0     0    3.90797    0   44    4.05944    3.90797  3.73%     -    5s
     0     0    3.92100    0   66    4.05944    3.92100  3.41%     -    5s
     0     0    3.92113    0   64    4.05944    3.92113  3.41%     -    6s
     0     0    3.95028    0   68    4.05944    3.95028  2.69%     -    6s
     0     0    3.95828    0   57    4.05944    3.95828  2.49%     -    6s
     0     0    3.95894    0   50    4.05944    3.95894  2.48%     -    6s
     0     0    3.95899    0   53    4.05944    3.95899  2.47%     -    6s
     0     0    3.97027    0   67    4.05944    3.97027  2.20%     -    6s
     0     0    3.97115    0   68    4.05944    3.97115  2.18%     -    6s
     0     0    3.97116    0   83    4.05944    3.97116  2.17%     -    6s
     0     0    3.97805    0   55    4.05944    3.97805  2.01%     -    6s
     0     0    3.97932    0   80    4.05944    3.97932  1.97%     -    7s
     0     0    3.98004    0   80    4.05944    3.98004  1.96%     -    7s
     0     0    3.98027    0   82    4.05944    3.98027  1.95%     -    7s
     0     0    3.98160    0   93    4.05944    3.98160  1.92%     -    7s
     0     0    3.98250    0   63    4.05944    3.98250  1.90%     -    7s
     0     0    3.98288    0   67    4.05944    3.98288  1.89%     -    7s
     0     0    3.98289    0   69    4.05944    3.98289  1.89%     -    7s
     0     0    3.98980    0   86    4.05944    3.98980  1.72%     -    7s
     0     0    3.99014    0   90    4.05944    3.99014  1.71%     -    7s
     0     0    3.99138    0   85    4.05944    3.99138  1.68%     -    7s
     0     0    3.99139    0   88    4.05944    3.99139  1.68%     -    7s
     0     0    3.99139    0   88    4.05944    3.99139  1.68%     -    7s
     0     0    4.00117    0   91    4.05944    4.00117  1.44%     -    8s
     0     0    4.00188    0   88    4.05944    4.00188  1.42%     -    8s
     0     0    4.00208    0   93    4.05944    4.00208  1.41%     -    8s
     0     0    4.00693    0   77    4.05944    4.00693  1.29%     -    8s
     0     0    4.00821    0   84    4.05944    4.00821  1.26%     -    8s
     0     0    4.00957    0  119    4.05944    4.00957  1.23%     -    8s
     0     0    4.00957    0  118    4.05944    4.00957  1.23%     -    8s
     0     0    4.01020    0   91    4.05944    4.01020  1.21%     -    8s
     0     0    4.01026    0   97    4.05944    4.01026  1.21%     -    8s
     0     0    4.01362    0  102    4.05944    4.01362  1.13%     -    8s
     0     0    4.01541    0   99    4.05944    4.01541  1.08%     -    8s
     0     0    4.01648    0   96    4.05944    4.01648  1.06%     -    9s
     0     0    4.01659    0  111    4.05944    4.01659  1.06%     -    9s
     0     0    4.01942    0  114    4.05944    4.01942  0.99%     -    9s
     0     0    4.02014    0  120    4.05944    4.02014  0.97%     -    9s
     0     0    4.02018    0  126    4.05944    4.02018  0.97%     -    9s
     0     0    4.02433    0  116    4.05944    4.02433  0.86%     -    9s
     0     0    4.02496    0  101    4.05944    4.02496  0.85%     -    9s
     0     0    4.02496    0  100    4.05944    4.02496  0.85%     -    9s
     0     0    4.02553    0  103    4.05944    4.02553  0.84%     -    9s
     0     0    4.02568    0  133    4.05944    4.02568  0.83%     -   10s
     0     0    4.02708    0  100    4.05944    4.02708  0.80%     -   10s
     0     0    4.02743    0  111    4.05944    4.02743  0.79%     -   10s
     0     0    4.02764    0  119    4.05944    4.02764  0.78%     -   10s
     0     0    4.02959    0  117    4.05944    4.02959  0.74%     -   10s
     0     0    4.02999    0  115    4.05944    4.02999  0.73%     -   10s
     0     0    4.03002    0  107    4.05944    4.03002  0.72%     -   10s
     0     0    4.03023    0  125    4.05944    4.03023  0.72%     -   10s
     0     0    4.03023    0  104    4.05944    4.03023  0.72%     -   10s
     0     0    4.03024    0   35    4.05944    4.03024  0.72%     -   11s
     0     0    4.03024    0   73    4.05944    4.03024  0.72%     -   11s
     0     0    4.03024    0   57    4.05944    4.03024  0.72%     -   11s
     0     0    4.03024    0   60    4.05944    4.03024  0.72%     -   11s
     0     0    4.03024    0   69    4.05944    4.03024  0.72%     -   11s
     0     0    4.03024    0   84    4.05944    4.03024  0.72%     -   11s
     0     0    4.03024    0   89    4.05944    4.03024  0.72%     -   11s
     0     0    4.03049    0   65    4.05944    4.03049  0.71%     -   11s
     0     0    4.03090    0   69    4.05944    4.03090  0.70%     -   11s
     0     0    4.03126    0   74    4.05944    4.03126  0.69%     -   12s
     0     0    4.03128    0   70    4.05944    4.03128  0.69%     -   12s
     0     0    4.03130    0   71    4.05944    4.03130  0.69%     -   12s
     0     0    4.03263    0   66    4.05944    4.03263  0.66%     -   12s
     0     0    4.03263    0   66    4.05944    4.03263  0.66%     -   12s
     0     0    4.03275    0   71    4.05944    4.03275  0.66%     -   12s
     0     0    4.03493    0   52    4.05944    4.03493  0.60%     -   12s
     0     0    4.03534    0   69    4.05944    4.03534  0.59%     -   12s
     0     0    4.03534    0   69    4.05944    4.03534  0.59%     -   12s
     0     0    4.03610    0   73    4.05944    4.03610  0.57%     -   12s
     0     0    4.03678    0   99    4.05944    4.03678  0.56%     -   12s
     0     0    4.03678    0   99    4.05944    4.03678  0.56%     -   12s
     0     0    4.03709    0   92    4.05944    4.03709  0.55%     -   12s
     0     0    4.03715    0   91    4.05944    4.03715  0.55%     -   12s
     0     0    4.03749    0   50    4.05944    4.03749  0.54%     -   12s
     0     0    4.03749    0   34    4.05944    4.03749  0.54%     -   13s
     0     0    4.03749    0   56    4.05944    4.03749  0.54%     -   13s
     0     0    4.03749    0   66    4.05944    4.03749  0.54%     -   13s
     0     0    4.03749    0   65    4.05944    4.03749  0.54%     -   13s
     0     0    4.03749    0   88    4.05944    4.03749  0.54%     -   13s
     0     0    4.03749    0   69    4.05944    4.03749  0.54%     -   13s
     0     0    4.03749    0   79    4.05944    4.03749  0.54%     -   13s
     0     0    4.04187    0   85    4.05944    4.04187  0.43%     -   13s
     0     0    4.04187    0   85    4.05944    4.04187  0.43%     -   13s
     0     0    4.04407    0   92    4.05944    4.04407  0.38%     -   13s
     0     0    4.04407    0   92    4.05944    4.04407  0.38%     -   13s
     0     0    4.04407    0   93    4.05944    4.04407  0.38%     -   13s
     0     0    4.04457    0   89    4.05944    4.04457  0.37%     -   13s
     0     0    4.04457    0   91    4.05944    4.04457  0.37%     -   13s
     0     0    4.04466    0   89    4.05944    4.04466  0.36%     -   13s
     0     0    4.04580    0   68    4.05944    4.04580  0.34%     -   13s
     0     0    4.04580    0   28    4.05944    4.04580  0.34%     -   13s
     0     0    4.04580    0   58    4.05944    4.04580  0.34%     -   13s
     0     0    4.04580    0   57    4.05944    4.04580  0.34%     -   13s
     0     0    4.04580    0   53    4.05944    4.04580  0.34%     -   13s
     0     0    4.04580    0   53    4.05944    4.04580  0.34%     -   13s
     0     0    4.04580    0   52    4.05944    4.04580  0.34%     -   13s
     0     0    4.04580    0   50    4.05944    4.04580  0.34%     -   13s
     0     0    4.05409    0    7    4.05944    4.05409  0.13%     -   13s
     0     0    4.05475    0    1    4.05944    4.05475  0.12%     -   13s
     0     0     cutoff    0         4.05944    4.05944  0.00%     -   13s

Cutting planes:
  Learned: 1
  Gomory: 6
  Lift-and-project: 1
  Cover: 22
  MIR: 6
  Flow cover: 38
  Flow path: 7
  Network: 15
  RLT: 4

Explored 1 nodes (36800 simplex iterations) in 13.89 seconds (9.43 work units)
Thread count was 18 (of 18 available processors)

Solution count 5: 4.05944 4.11317 4.11348 ... 4.16409

Optimal solution found (tolerance 1.00e-04)
Best objective 4.059441348222e+00, best bound 4.059441348215e+00, gap 0.0000%
